# Desembolso de cada ano 
param desembolso: 1 2 3 4 :=
              1  10.50 14.40 2.20 2.40
              2   8.30 12.60 9.50 3.10
              3  10.20 14.20 5.60 4.20
              4   7.20 10.50 7.50 5.00
              5  12.30 10.10 8.30 6.30
              6   9.20  7.80 6.90 5.10;
              
#Fundo disponível para cada ano
param disp := 1 60.00 2 70.00 3 35.00 4 20.00;

#Retorno total por projeto executado
param ren := 1 32.40 2 35.80 3 17.75 4 14.80 5 18.20 6 12.35;